NAME          DCAP_2_3_3_500_SS248
ROWS
 N  OBJ
 L  CON1
 L  CON2
 L  CON3
 L  CON4
 L  CON5
 L  CON6
 L  CON7
 L  CON8
 L  CON9
 L  CON10
 L  CON11
 L  CON12
 E  CON13
 E  CON14
 E  CON15
 E  CON16
 E  CON17
 E  CON18
 E  CON19
 E  CON20
 E  CON21
COLUMNS
    x[1,1]    OBJ       6.180167      CON1      1.000000    
    x[1,1]    CON7      -1.000000     CON8      -1.000000   
    x[1,1]    CON9      -1.000000   
    x[1,2]    OBJ       6.563535      CON2      1.000000    
    x[1,2]    CON8      -1.000000     CON9      -1.000000   
    x[1,3]    OBJ       7.443064      CON3      1.000000    
    x[1,3]    CON9      -1.000000   
    x[2,1]    OBJ       6.732585      CON4      1.000000    
    x[2,1]    CON10     -1.000000     CON11     -1.000000   
    x[2,1]    CON12     -1.000000   
    x[2,2]    OBJ       5.039546      CON5      1.000000    
    x[2,2]    CON11     -1.000000     CON12     -1.000000   
    x[2,3]    OBJ       6.054841      CON6      1.000000    
    x[2,3]    CON12     -1.000000   
    MARKER    'MARKER'                'INTORG'
    u[1,1]    OBJ       48.076654     CON1      -1.000000   
    u[1,2]    OBJ       20.066487     CON2      -1.000000   
    u[1,3]    OBJ       32.230043     CON3      -1.000000   
    u[2,1]    OBJ       49.996186     CON4      -1.000000   
    u[2,2]    OBJ       49.466655     CON5      -1.000000   
    u[2,3]    OBJ       27.484319     CON6      -1.000000   
    y[1,1,1]  OBJ       5.150688      CON7      1.099444    
    y[1,1,1]  CON13     1.000000    
    y[1,1,2]  OBJ       5.491288      CON8      0.659660    
    y[1,1,2]  CON14     1.000000    
    y[1,1,3]  OBJ       7.408467      CON9      1.059256    
    y[1,1,3]  CON15     1.000000    
    y[1,2,1]  OBJ       6.712923      CON7      1.457516    
    y[1,2,1]  CON16     1.000000    
    y[1,2,2]  OBJ       8.174584      CON8      1.277538    
    y[1,2,2]  CON17     1.000000    
    y[1,2,3]  OBJ       6.200728      CON9      1.108756    
    y[1,2,3]  CON18     1.000000    
    y[1,3,1]  OBJ       8.298060      CON7      0.804213    
    y[1,3,1]  CON19     1.000000    
    y[1,3,2]  OBJ       5.936378      CON8      1.311947    
    y[1,3,2]  CON20     1.000000    
    y[1,3,3]  OBJ       6.203808      CON9      0.540637    
    y[1,3,3]  CON21     1.000000    
    y[2,1,1]  OBJ       7.363808      CON10     1.099444    
    y[2,1,1]  CON13     1.000000    
    y[2,1,2]  OBJ       7.194763      CON11     0.659660    
    y[2,1,2]  CON14     1.000000    
    y[2,1,3]  OBJ       8.237464      CON12     1.059256    
    y[2,1,3]  CON15     1.000000    
    y[2,2,1]  OBJ       9.866054      CON10     1.457516    
    y[2,2,1]  CON16     1.000000    
    y[2,2,2]  OBJ       5.168364      CON11     1.277538    
    y[2,2,2]  CON17     1.000000    
    y[2,2,3]  OBJ       5.184261      CON12     1.108756    
    y[2,2,3]  CON18     1.000000    
    y[2,3,1]  OBJ       6.545279      CON10     0.804213    
    y[2,3,1]  CON19     1.000000    
    y[2,3,2]  OBJ       5.650669      CON11     1.311947    
    y[2,3,2]  CON20     1.000000    
    y[2,3,3]  OBJ       6.781997      CON12     0.540637    
    y[2,3,3]  CON21     1.000000    
    z[1,1]    OBJ       639.828242    CON13     1.000000    
    z[1,2]    OBJ       777.805739    CON14     1.000000    
    z[1,3]    OBJ       989.685059    CON15     1.000000    
    z[2,1]    OBJ       796.037852    CON16     1.000000    
    z[2,2]    OBJ       718.478858    CON17     1.000000    
    z[2,3]    OBJ       590.549234    CON18     1.000000    
    z[3,1]    OBJ       679.359645    CON19     1.000000    
    z[3,2]    OBJ       782.791664    CON20     1.000000    
    z[3,3]    OBJ       595.975122    CON21     1.000000    
    MARKER    'MARKER'                 'INTEND'
RHS
    RHS       CON1      -0.000000     CON2      -0.000000   
    RHS       CON3      -0.000000     CON4      -0.000000   
    RHS       CON5      -0.000000     CON6      -0.000000   
    RHS       CON7      -0.000000     CON8      -0.000000   
    RHS       CON9      -0.000000     CON10     -0.000000   
    RHS       CON11     -0.000000     CON12     -0.000000   
    RHS       CON13     1.000000      CON14     1.000000    
    RHS       CON15     1.000000      CON16     1.000000    
    RHS       CON17     1.000000      CON18     1.000000    
    RHS       CON19     1.000000      CON20     1.000000    
    RHS       CON21     1.000000    
BOUNDS
 BV BOUND     u[1,1]  
 BV BOUND     u[1,2]  
 BV BOUND     u[1,3]  
 BV BOUND     u[2,1]  
 BV BOUND     u[2,2]  
 BV BOUND     u[2,3]  
 BV BOUND     y[1,1,1]
 BV BOUND     y[1,1,2]
 BV BOUND     y[1,1,3]
 BV BOUND     y[1,2,1]
 BV BOUND     y[1,2,2]
 BV BOUND     y[1,2,3]
 BV BOUND     y[1,3,1]
 BV BOUND     y[1,3,2]
 BV BOUND     y[1,3,3]
 BV BOUND     y[2,1,1]
 BV BOUND     y[2,1,2]
 BV BOUND     y[2,1,3]
 BV BOUND     y[2,2,1]
 BV BOUND     y[2,2,2]
 BV BOUND     y[2,2,3]
 BV BOUND     y[2,3,1]
 BV BOUND     y[2,3,2]
 BV BOUND     y[2,3,3]
 BV BOUND     z[1,1]  
 BV BOUND     z[1,2]  
 BV BOUND     z[1,3]  
 BV BOUND     z[2,1]  
 BV BOUND     z[2,2]  
 BV BOUND     z[2,3]  
 BV BOUND     z[3,1]  
 BV BOUND     z[3,2]  
 BV BOUND     z[3,3]  
ENDATA
